maximize
x11+x12+x13+x14
subject to
x00 + x10 + x20 + x30 + x40 + x50 + x60 + x70 + x80 + x90= 1
x01 + x11 + x21 + x31 + x41 + x51 + x61 + x71 + x81 + x91= 1
x02 + x12 + x22 + x32 + x42 + x52 + x62 + x72 + x82 + x92= 1
x03 + x13 + x23 + x33 + x43 + x53 + x63 + x73 + x83 + x93= 1
x04 + x14 + x24 + x34 + x44 + x54 + x64 + x74 + x84 + x94= 1
x05 + x15 + x25 + x35 + x45 + x55 + x65 + x75 + x85 + x95= 1
x06 + x16 + x26 + x36 + x46 + x56 + x66 + x76 + x86 + x96= 1
x07 + x17 + x27 + x37 + x47 + x57 + x67 + x77 + x87 + x97= 1
x08 + x18 + x28 + x38 + x48 + x58 + x68 + x78 + x88 + x98= 1
x09 + x19 + x29 + x39 + x49 + x59 + x69 + x79 + x89 + x99= 1
x010 + x110 + x210 + x310 + x410 + x510 + x610 + x710 + x810 + x910= 1
x011 + x111 + x211 + x311 + x411 + x511 + x611 + x711 + x811 + x911= 1
x012 + x112 + x212 + x312 + x412 + x512 + x612 + x712 + x812 + x912= 1
x013 + x113 + x213 + x313 + x413 + x513 + x613 + x713 + x813 + x913= 1
x014 + x114 + x214 + x314 + x414 + x514 + x614 + x714 + x814 + x914= 1
x015 + x115 + x215 + x315 + x415 + x515 + x615 + x715 + x815 + x915= 1
x50 + x61 + x12 + x63 + x14 + x85 + x56 + x67 + x58 + x09 + x510 + x111 + x812 + x213 + x914 + x315 = 2
x30 + x81 + x42 + x73 + x44 + x35 + x96 + x67 + x48 + x79 + x210 + x911 + x312 + x013 + x414 + x715 = 1
x50 + x81 + x52 + x53 + x44 + x65 + x26 + x97 + x48 + x09 + x810 + x111 + x012 + x513 + x814 + x715 = 3
x90 + x71 + x42 + x23 + x84 + x55 + x56 + x57 + x08 + x79 + x010 + x611 + x812 + x313 + x514 + x315 = 3
x40 + x21 + x92 + x63 + x84 + x45 + x96 + x67 + x48 + x39 + x610 + x011 + x712 + x513 + x414 + x315 = 3
x30 + x11 + x72 + x43 + x24 + x45 + x86 + x47 + x38 + x99 + x410 + x611 + x512 + x813 + x514 + x815 = 1
x40 + x51 + x12 + x33 + x54 + x55 + x96 + x07 + x98 + x49 + x110 + x411 + x612 + x113 + x114 + x715 = 2
x70 + x81 + x92 + x03 + x94 + x75 + x16 + x57 + x48 + x89 + x910 + x011 + x812 + x013 + x614 + x715 = 3
x80 + x11 + x52 + x73 + x34 + x55 + x66 + x37 + x48 + x49 + x110 + x111 + x812 + x413 + x814 + x315 = 1
x20 + x61 + x12 + x53 + x24 + x55 + x06 + x77 + x48 + x49 + x310 + x811 + x612 + x813 + x914 + x915 = 2
x80 + x61 + x92 + x03 + x04 + x95 + x56 + x87 + x58 + x19 + x510 + x211 + x612 + x213 + x514 + x415 = 3
x60 + x31 + x72 + x53 + x74 + x15 + x16 + x97 + x18 + x59 + x010 + x711 + x712 + x013 + x514 + x015 = 1
x60 + x91 + x12 + x33 + x84 + x55 + x96 + x17 + x78 + x39 + x110 + x211 + x112 + x313 + x614 + x015 = 1
x60 + x41 + x42 + x23 + x84 + x85 + x96 + x07 + x58 + x59 + x010 + x411 + x212 + x713 + x614 + x815 = 2
x20 + x31 + x22 + x13 + x34 + x85 + x66 + x17 + x08 + x49 + x310 + x011 + x312 + x813 + x414 + x515 = 0
x20 + x31 + x22 + x63 + x54 + x05 + x96 + x47 + x78 + x19 + x210 + x711 + x112 + x413 + x414 + x815 = 2
x50 + x21 + x52 + x13 + x54 + x85 + x36 + x37 + x78 + x99 + x610 + x411 + x412 + x313 + x214 + x215 = 2
x10 + x71 + x42 + x83 + x24 + x75 + x06 + x47 + x78 + x69 + x710 + x511 + x812 + x213 + x714 + x615 = 3
x40 + x81 + x92 + x53 + x74 + x25 + x26 + x67 + x58 + x29 + x110 + x911 + x012 + x313 + x014 + x615 = 1
x30 + x01 + x42 + x13 + x64 + x35 + x16 + x17 + x18 + x79 + x210 + x211 + x412 + x613 + x314 + x515 = 3
x10 + x81 + x42 + x13 + x24 + x35 + x66 + x47 + x58 + x49 + x310 + x211 + x412 + x513 + x814 + x915 = 3
x20 + x61 + x52 + x93 + x84 + x65 + x26 + x67 + x38 + x79 + x310 + x111 + x612 + x813 + x614 + x715 = 2
bounds
x00>=0
x00<=1
x01>=0
x01<=1
x02>=0
x02<=1
x03>=0
x03<=1
x04>=0
x04<=1
x05>=0
x05<=1
x06>=0
x06<=1
x07>=0
x07<=1
x08>=0
x08<=1
x09>=0
x09<=1
x010>=0
x010<=1
x011>=0
x011<=1
x012>=0
x012<=1
x013>=0
x013<=1
x014>=0
x014<=1
x015>=0
x015<=1
x10>=0
x10<=1
x11>=0
x11<=1
x12>=0
x12<=1
x13>=0
x13<=1
x14>=0
x14<=1
x15>=0
x15<=1
x16>=0
x16<=1
x17>=0
x17<=1
x18>=0
x18<=1
x19>=0
x19<=1
x110>=0
x110<=1
x111>=0
x111<=1
x112>=0
x112<=1
x113>=0
x113<=1
x114>=0
x114<=1
x115>=0
x115<=1
x20>=0
x20<=1
x21>=0
x21<=1
x22>=0
x22<=1
x23>=0
x23<=1
x24>=0
x24<=1
x25>=0
x25<=1
x26>=0
x26<=1
x27>=0
x27<=1
x28>=0
x28<=1
x29>=0
x29<=1
x210>=0
x210<=1
x211>=0
x211<=1
x212>=0
x212<=1
x213>=0
x213<=1
x214>=0
x214<=1
x215>=0
x215<=1
x30>=0
x30<=1
x31>=0
x31<=1
x32>=0
x32<=1
x33>=0
x33<=1
x34>=0
x34<=1
x35>=0
x35<=1
x36>=0
x36<=1
x37>=0
x37<=1
x38>=0
x38<=1
x39>=0
x39<=1
x310>=0
x310<=1
x311>=0
x311<=1
x312>=0
x312<=1
x313>=0
x313<=1
x314>=0
x314<=1
x315>=0
x315<=1
x40>=0
x40<=1
x41>=0
x41<=1
x42>=0
x42<=1
x43>=0
x43<=1
x44>=0
x44<=1
x45>=0
x45<=1
x46>=0
x46<=1
x47>=0
x47<=1
x48>=0
x48<=1
x49>=0
x49<=1
x410>=0
x410<=1
x411>=0
x411<=1
x412>=0
x412<=1
x413>=0
x413<=1
x414>=0
x414<=1
x415>=0
x415<=1
x50>=0
x50<=1
x51>=0
x51<=1
x52>=0
x52<=1
x53>=0
x53<=1
x54>=0
x54<=1
x55>=0
x55<=1
x56>=0
x56<=1
x57>=0
x57<=1
x58>=0
x58<=1
x59>=0
x59<=1
x510>=0
x510<=1
x511>=0
x511<=1
x512>=0
x512<=1
x513>=0
x513<=1
x514>=0
x514<=1
x515>=0
x515<=1
x60>=0
x60<=1
x61>=0
x61<=1
x62>=0
x62<=1
x63>=0
x63<=1
x64>=0
x64<=1
x65>=0
x65<=1
x66>=0
x66<=1
x67>=0
x67<=1
x68>=0
x68<=1
x69>=0
x69<=1
x610>=0
x610<=1
x611>=0
x611<=1
x612>=0
x612<=1
x613>=0
x613<=1
x614>=0
x614<=1
x615>=0
x615<=1
x70>=0
x70<=1
x71>=0
x71<=1
x72>=0
x72<=1
x73>=0
x73<=1
x74>=0
x74<=1
x75>=0
x75<=1
x76>=0
x76<=1
x77>=0
x77<=1
x78>=0
x78<=1
x79>=0
x79<=1
x710>=0
x710<=1
x711>=0
x711<=1
x712>=0
x712<=1
x713>=0
x713<=1
x714>=0
x714<=1
x715>=0
x715<=1
x80>=0
x80<=1
x81>=0
x81<=1
x82>=0
x82<=1
x83>=0
x83<=1
x84>=0
x84<=1
x85>=0
x85<=1
x86>=0
x86<=1
x87>=0
x87<=1
x88>=0
x88<=1
x89>=0
x89<=1
x810>=0
x810<=1
x811>=0
x811<=1
x812>=0
x812<=1
x813>=0
x813<=1
x814>=0
x814<=1
x815>=0
x815<=1
x90>=0
x90<=1
x91>=0
x91<=1
x92>=0
x92<=1
x93>=0
x93<=1
x94>=0
x94<=1
x95>=0
x95<=1
x96>=0
x96<=1
x97>=0
x97<=1
x98>=0
x98<=1
x99>=0
x99<=1
x910>=0
x910<=1
x911>=0
x911<=1
x912>=0
x912<=1
x913>=0
x913<=1
x914>=0
x914<=1
x915>=0
x915<=1
integer
x00
x01
x02
x03
x04
x05
x06
x07
x08
x09
x010
x011
x012
x013
x014
x015
x10
x11
x12
x13
x14
x15
x16
x17
x18
x19
x110
x111
x112
x113
x114
x115
x20
x21
x22
x23
x24
x25
x26
x27
x28
x29
x210
x211
x212
x213
x214
x215
x30
x31
x32
x33
x34
x35
x36
x37
x38
x39
x310
x311
x312
x313
x314
x315
x40
x41
x42
x43
x44
x45
x46
x47
x48
x49
x410
x411
x412
x413
x414
x415
x50
x51
x52
x53
x54
x55
x56
x57
x58
x59
x510
x511
x512
x513
x514
x515
x60
x61
x62
x63
x64
x65
x66
x67
x68
x69
x610
x611
x612
x613
x614
x615
x70
x71
x72
x73
x74
x75
x76
x77
x78
x79
x710
x711
x712
x713
x714
x715
x80
x81
x82
x83
x84
x85
x86
x87
x88
x89
x810
x811
x812
x813
x814
x815
x90
x91
x92
x93
x94
x95
x96
x97
x98
x99
x910
x911
x912
x913
x914
x915
end
